32      4       
20      12      18      13      
0       0       0       0       0       1       2       
10      20      12      15      5       1       3       
2       20      8       16      13      1       4       
8       9       12      18      13      2       8       5       
1       10      12      16      10      1       6       
10      14      12      18      13      1       7       
5       20      12      18      13      1       9       
1       20      12      18      7       1       9       
9       20      6       9       13      2       15      10      
8       20      12      18      13      1       11      
4       20      12      17      13      2       25      12      
3       12      8       18      13      1       13      
3       20      12      18      13      1       14      
5       16      12      14      8       1       16      
1       15      6       18      12      1       16      
9       18      12      18      13      1       17      
3       16      12      18      13      2       23      18      
1       20      12      18      13      2       20      19      
9       20      12      18      13      1       21      
6       20      11      17      13      1       21      
9       20      12      17      13      1       22      
7       14      12      14      13      1       24      
5       20      12      18      13      1       24      
5       20      10      18      12      2       27      26      
8       20      12      18      9       2       27      26      
9       20      11      18      9       1       28      
3       20      12      12      13      1       28      
6       20      8       18      13      1       29      
4       20      12      11      9       1       30      
7       20      5       12      10      1       31      
5       16      11      10      13      1       32      
0       0       0       0       0       0       
